25911 25211 1 2 3 4 5 6 7 8 9 10 13 14 15 16 17 18 21 22 23 24 26 27 28 29 30 31 36 37 38 41 43 45 47 49 50 51 52 54 55 56 57 58 59 61 62 64 65 66 67 68 70 72 73 75 76 77 79 81 82 84 85 86 87 88 90 91 92 98 99 100 